data/processed_heuristic-threshold/instances/1/9/ds_619_courier_161/pairwise.tsp
NAME: ds_619_courier_161
TYPE: TSP
COMMENT: nil
DIMENSION: 10
EDGE_WEIGHT_TYPE: EXPLICIT
EDGE_WEIGHT_FORMAT: FULL_MATRIX
EDGE_WEIGHT_SECTION
9999 1610 1634 1274 1868 27 1486 1353 89 57 
1610 9999 157 516 377 1597 414 662 1551 1636 
1634 157 9999 443 500 1623 291 552 1569 1655 
1274 516 443 9999 890 1268 213 202 1199 1286 
1868 377 500 890 9999 1851 785 1038 1820 1901 
27 1597 1623 1268 1851 9999 1480 1351 102 84 
1486 414 291 213 785 1480 9999 263 1412 1499 
1353 662 552 202 1038 1351 263 9999 1272 1357 
89 1551 1569 1199 1820 102 1412 1272 9999 87 
57 1636 1655 1286 1901 84 1499 1357 87 9999 
