data/processed_heuristic-threshold/instances/1/9/ds_619_courier_161/pairwise.sol
10
0 9 8 3 7 6 2 1 4 5 
